31 31
19
3 3   0 28
4 3   9 15
3 5   6 20
3 6   6 25
3 7   0 21
3 8   6 12
3 9   16 0 
3 10  0 11
3 11  0 0 
3 12  6 0 
3 13  13 14
3 14  13 0 
3 22  16 9 
3 31  3 0 
3 4   13 27
4 7   9 0 
4 8   9 7 
4 13  9 18
12 31  19 0 
